NAME : XML100_3126_16
DIMENSION : 101
NB_CLUSTERS : 18
CLUSTERING_ALG : DBSCAN
CLUSTERING_PARAMS : eps(89), minSamples(3)
CLUSTERS
1 0
2 1 5 7 21 24 29 38 45 51 55 58 65 73 89 93 98
3 2 16 30 41 53 64 79 90 94 100
4 3 13 91
5 6 44 46 49 50 61 69 81
6 10 12 37 39 59 62 67 71 84
7 15 35 77 92
8 20 33 36 48 95
9 8 19 22 31 52 54 72 78 97
10 14 23 26 34 42 57 70 76 80 85
11 18 25 28 32
12 27 47 60 63 87 96
13 9 11 68 75 86 88
14 66 82
15 56 83
16 43 99
17 4 74
18 17 40
EOF